c Problem generated from carry-save[n-bit] multiplication circuit
c by Paul Purdom and Amr Sabry
c
c Circuit for product = 271 [True,False,False,False,False,True,True,True,True]
c Variables for output [msb,...,lsb]: [204,203,198,193,188,183,178,174,134,91,48,24,14]
c Variables for first input [msb,...,lsb]: [8,7,6,5,4,3,2,1]
c Variables for second input [msb,...,lsb]: [13,12,11,10,9]
c
c
p cnf 204 777
1 9 -14 0
1 -9 -14 0
-1 9 -14 0
-1 -9 14 0
2 9 -15 0
2 -9 -15 0
-2 9 -15 0
-2 -9 15 0
3 9 -16 0
3 -9 -16 0
-3 9 -16 0
-3 -9 16 0
4 9 -17 0
4 -9 -17 0
-4 9 -17 0
-4 -9 17 0
5 9 -18 0
5 -9 -18 0
-5 9 -18 0
-5 -9 18 0
6 9 -19 0
6 -9 -19 0
-6 9 -19 0
-6 -9 19 0
7 9 -20 0
7 -9 -20 0
-7 9 -20 0
-7 -9 20 0
8 9 -21 0
8 -9 -21 0
-8 9 -21 0
-8 -9 21 0
1 10 -22 0
1 -10 -22 0
-1 10 -22 0
-1 -10 22 0
15 22 -23 0
15 -22 -23 0
-15 22 -23 0
-15 -22 23 0
15 22 -24 0
15 -22 24 0
-15 22 24 0
-15 -22 -24 0
2 10 -25 0
2 -10 -25 0
-2 10 -25 0
-2 -10 25 0
16 25 -26 0
16 -25 -26 0
-16 25 -26 0
-16 -25 26 0
16 25 -27 0
16 -25 27 0
-16 25 27 0
-16 -25 -27 0
3 10 -28 0
3 -10 -28 0
-3 10 -28 0
-3 -10 28 0
17 28 -29 0
17 -28 -29 0
-17 28 -29 0
-17 -28 29 0
17 28 -30 0
17 -28 30 0
-17 28 30 0
-17 -28 -30 0
4 10 -31 0
4 -10 -31 0
-4 10 -31 0
-4 -10 31 0
18 31 -32 0
18 -31 -32 0
-18 31 -32 0
-18 -31 32 0
18 31 -33 0
18 -31 33 0
-18 31 33 0
-18 -31 -33 0
5 10 -34 0
5 -10 -34 0
-5 10 -34 0
-5 -10 34 0
19 34 -35 0
19 -34 -35 0
-19 34 -35 0
-19 -34 35 0
19 34 -36 0
19 -34 36 0
-19 34 36 0
-19 -34 -36 0
6 10 -37 0
6 -10 -37 0
-6 10 -37 0
-6 -10 37 0
20 37 -38 0
20 -37 -38 0
-20 37 -38 0
-20 -37 38 0
20 37 -39 0
20 -37 39 0
-20 37 39 0
-20 -37 -39 0
7 10 -40 0
7 -10 -40 0
-7 10 -40 0
-7 -10 40 0
21 40 -41 0
21 -40 -41 0
-21 40 -41 0
-21 -40 41 0
21 40 -42 0
21 -40 42 0
-21 40 42 0
-21 -40 -42 0
8 10 -43 0
8 -10 -43 0
-8 10 -43 0
-8 -10 43 0
1 11 -44 0
1 -11 -44 0
-1 11 -44 0
-1 -11 44 0
27 44 -45 0
27 -44 -45 0
-27 44 -45 0
-27 -44 45 0
27 44 -46 0
27 -44 46 0
-27 44 46 0
-27 -44 -46 0
23 46 -47 0
23 -46 -47 0
-23 46 -47 0
-23 -46 47 0
23 46 -48 0
23 -46 48 0
-23 46 48 0
-23 -46 -48 0
45 47 -49 0
45 -47 49 0
-45 47 49 0
-45 -47 -49 0
2 11 -50 0
2 -11 -50 0
-2 11 -50 0
-2 -11 50 0
30 50 -51 0
30 -50 -51 0
-30 50 -51 0
-30 -50 51 0
30 50 -52 0
30 -50 52 0
-30 50 52 0
-30 -50 -52 0
26 52 -53 0
26 -52 -53 0
-26 52 -53 0
-26 -52 53 0
26 52 -54 0
26 -52 54 0
-26 52 54 0
-26 -52 -54 0
51 53 -55 0
51 -53 55 0
-51 53 55 0
-51 -53 -55 0
3 11 -56 0
3 -11 -56 0
-3 11 -56 0
-3 -11 56 0
33 56 -57 0
33 -56 -57 0
-33 56 -57 0
-33 -56 57 0
33 56 -58 0
33 -56 58 0
-33 56 58 0
-33 -56 -58 0
29 58 -59 0
29 -58 -59 0
-29 58 -59 0
-29 -58 59 0
29 58 -60 0
29 -58 60 0
-29 58 60 0
-29 -58 -60 0
57 59 -61 0
57 -59 61 0
-57 59 61 0
-57 -59 -61 0
4 11 -62 0
4 -11 -62 0
-4 11 -62 0
-4 -11 62 0
36 62 -63 0
36 -62 -63 0
-36 62 -63 0
-36 -62 63 0
36 62 -64 0
36 -62 64 0
-36 62 64 0
-36 -62 -64 0
32 64 -65 0
32 -64 -65 0
-32 64 -65 0
-32 -64 65 0
32 64 -66 0
32 -64 66 0
-32 64 66 0
-32 -64 -66 0
63 65 -67 0
63 -65 67 0
-63 65 67 0
-63 -65 -67 0
5 11 -68 0
5 -11 -68 0
-5 11 -68 0
-5 -11 68 0
39 68 -69 0
39 -68 -69 0
-39 68 -69 0
-39 -68 69 0
39 68 -70 0
39 -68 70 0
-39 68 70 0
-39 -68 -70 0
35 70 -71 0
35 -70 -71 0
-35 70 -71 0
-35 -70 71 0
35 70 -72 0
35 -70 72 0
-35 70 72 0
-35 -70 -72 0
69 71 -73 0
69 -71 73 0
-69 71 73 0
-69 -71 -73 0
6 11 -74 0
6 -11 -74 0
-6 11 -74 0
-6 -11 74 0
42 74 -75 0
42 -74 -75 0
-42 74 -75 0
-42 -74 75 0
42 74 -76 0
42 -74 76 0
-42 74 76 0
-42 -74 -76 0
38 76 -77 0
38 -76 -77 0
-38 76 -77 0
-38 -76 77 0
38 76 -78 0
38 -76 78 0
-38 76 78 0
-38 -76 -78 0
75 77 -79 0
75 -77 79 0
-75 77 79 0
-75 -77 -79 0
7 11 -80 0
7 -11 -80 0
-7 11 -80 0
-7 -11 80 0
43 80 -81 0
43 -80 -81 0
-43 80 -81 0
-43 -80 81 0
43 80 -82 0
43 -80 82 0
-43 80 82 0
-43 -80 -82 0
41 82 -83 0
41 -82 -83 0
-41 82 -83 0
-41 -82 83 0
41 82 -84 0
41 -82 84 0
-41 82 84 0
-41 -82 -84 0
81 83 -85 0
81 -83 85 0
-81 83 85 0
-81 -83 -85 0
8 11 -86 0
8 -11 -86 0
-8 11 -86 0
-8 -11 86 0
1 12 -87 0
1 -12 -87 0
-1 12 -87 0
-1 -12 87 0
54 87 -88 0
54 -87 -88 0
-54 87 -88 0
-54 -87 88 0
54 87 -89 0
54 -87 89 0
-54 87 89 0
-54 -87 -89 0
49 89 -90 0
49 -89 -90 0
-49 89 -90 0
-49 -89 90 0
49 89 -91 0
49 -89 91 0
-49 89 91 0
-49 -89 -91 0
88 90 -92 0
88 -90 92 0
-88 90 92 0
-88 -90 -92 0
2 12 -93 0
2 -12 -93 0
-2 12 -93 0
-2 -12 93 0
60 93 -94 0
60 -93 -94 0
-60 93 -94 0
-60 -93 94 0
60 93 -95 0
60 -93 95 0
-60 93 95 0
-60 -93 -95 0
55 95 -96 0
55 -95 -96 0
-55 95 -96 0
-55 -95 96 0
55 95 -97 0
55 -95 97 0
-55 95 97 0
-55 -95 -97 0
94 96 -98 0
94 -96 98 0
-94 96 98 0
-94 -96 -98 0
3 12 -99 0
3 -12 -99 0
-3 12 -99 0
-3 -12 99 0
66 99 -100 0
66 -99 -100 0
-66 99 -100 0
-66 -99 100 0
66 99 -101 0
66 -99 101 0
-66 99 101 0
-66 -99 -101 0
61 101 -102 0
61 -101 -102 0
-61 101 -102 0
-61 -101 102 0
61 101 -103 0
61 -101 103 0
-61 101 103 0
-61 -101 -103 0
100 102 -104 0
100 -102 104 0
-100 102 104 0
-100 -102 -104 0
4 12 -105 0
4 -12 -105 0
-4 12 -105 0
-4 -12 105 0
72 105 -106 0
72 -105 -106 0
-72 105 -106 0
-72 -105 106 0
72 105 -107 0
72 -105 107 0
-72 105 107 0
-72 -105 -107 0
67 107 -108 0
67 -107 -108 0
-67 107 -108 0
-67 -107 108 0
67 107 -109 0
67 -107 109 0
-67 107 109 0
-67 -107 -109 0
106 108 -110 0
106 -108 110 0
-106 108 110 0
-106 -108 -110 0
5 12 -111 0
5 -12 -111 0
-5 12 -111 0
-5 -12 111 0
78 111 -112 0
78 -111 -112 0
-78 111 -112 0
-78 -111 112 0
78 111 -113 0
78 -111 113 0
-78 111 113 0
-78 -111 -113 0
73 113 -114 0
73 -113 -114 0
-73 113 -114 0
-73 -113 114 0
73 113 -115 0
73 -113 115 0
-73 113 115 0
-73 -113 -115 0
112 114 -116 0
112 -114 116 0
-112 114 116 0
-112 -114 -116 0
6 12 -117 0
6 -12 -117 0
-6 12 -117 0
-6 -12 117 0
84 117 -118 0
84 -117 -118 0
-84 117 -118 0
-84 -117 118 0
84 117 -119 0
84 -117 119 0
-84 117 119 0
-84 -117 -119 0
79 119 -120 0
79 -119 -120 0
-79 119 -120 0
-79 -119 120 0
79 119 -121 0
79 -119 121 0
-79 119 121 0
-79 -119 -121 0
118 120 -122 0
118 -120 122 0
-118 120 122 0
-118 -120 -122 0
7 12 -123 0
7 -12 -123 0
-7 12 -123 0
-7 -12 123 0
86 123 -124 0
86 -123 -124 0
-86 123 -124 0
-86 -123 124 0
86 123 -125 0
86 -123 125 0
-86 123 125 0
-86 -123 -125 0
85 125 -126 0
85 -125 -126 0
-85 125 -126 0
-85 -125 126 0
85 125 -127 0
85 -125 127 0
-85 125 127 0
-85 -125 -127 0
124 126 -128 0
124 -126 128 0
-124 126 128 0
-124 -126 -128 0
8 12 -129 0
8 -12 -129 0
-8 12 -129 0
-8 -12 129 0
1 13 -130 0
1 -13 -130 0
-1 13 -130 0
-1 -13 130 0
97 130 -131 0
97 -130 -131 0
-97 130 -131 0
-97 -130 131 0
97 130 -132 0
97 -130 132 0
-97 130 132 0
-97 -130 -132 0
92 132 -133 0
92 -132 -133 0
-92 132 -133 0
-92 -132 133 0
92 132 -134 0
92 -132 134 0
-92 132 134 0
-92 -132 -134 0
131 133 -135 0
131 -133 135 0
-131 133 135 0
-131 -133 -135 0
2 13 -136 0
2 -13 -136 0
-2 13 -136 0
-2 -13 136 0
103 136 -137 0
103 -136 -137 0
-103 136 -137 0
-103 -136 137 0
103 136 -138 0
103 -136 138 0
-103 136 138 0
-103 -136 -138 0
98 138 -139 0
98 -138 -139 0
-98 138 -139 0
-98 -138 139 0
98 138 -140 0
98 -138 140 0
-98 138 140 0
-98 -138 -140 0
137 139 -141 0
137 -139 141 0
-137 139 141 0
-137 -139 -141 0
3 13 -142 0
3 -13 -142 0
-3 13 -142 0
-3 -13 142 0
109 142 -143 0
109 -142 -143 0
-109 142 -143 0
-109 -142 143 0
109 142 -144 0
109 -142 144 0
-109 142 144 0
-109 -142 -144 0
104 144 -145 0
104 -144 -145 0
-104 144 -145 0
-104 -144 145 0
104 144 -146 0
104 -144 146 0
-104 144 146 0
-104 -144 -146 0
143 145 -147 0
143 -145 147 0
-143 145 147 0
-143 -145 -147 0
4 13 -148 0
4 -13 -148 0
-4 13 -148 0
-4 -13 148 0
115 148 -149 0
115 -148 -149 0
-115 148 -149 0
-115 -148 149 0
115 148 -150 0
115 -148 150 0
-115 148 150 0
-115 -148 -150 0
110 150 -151 0
110 -150 -151 0
-110 150 -151 0
-110 -150 151 0
110 150 -152 0
110 -150 152 0
-110 150 152 0
-110 -150 -152 0
149 151 -153 0
149 -151 153 0
-149 151 153 0
-149 -151 -153 0
5 13 -154 0
5 -13 -154 0
-5 13 -154 0
-5 -13 154 0
121 154 -155 0
121 -154 -155 0
-121 154 -155 0
-121 -154 155 0
121 154 -156 0
121 -154 156 0
-121 154 156 0
-121 -154 -156 0
116 156 -157 0
116 -156 -157 0
-116 156 -157 0
-116 -156 157 0
116 156 -158 0
116 -156 158 0
-116 156 158 0
-116 -156 -158 0
155 157 -159 0
155 -157 159 0
-155 157 159 0
-155 -157 -159 0
6 13 -160 0
6 -13 -160 0
-6 13 -160 0
-6 -13 160 0
127 160 -161 0
127 -160 -161 0
-127 160 -161 0
-127 -160 161 0
127 160 -162 0
127 -160 162 0
-127 160 162 0
-127 -160 -162 0
122 162 -163 0
122 -162 -163 0
-122 162 -163 0
-122 -162 163 0
122 162 -164 0
122 -162 164 0
-122 162 164 0
-122 -162 -164 0
161 163 -165 0
161 -163 165 0
-161 163 165 0
-161 -163 -165 0
7 13 -166 0
7 -13 -166 0
-7 13 -166 0
-7 -13 166 0
129 166 -167 0
129 -166 -167 0
-129 166 -167 0
-129 -166 167 0
129 166 -168 0
129 -166 168 0
-129 166 168 0
-129 -166 -168 0
128 168 -169 0
128 -168 -169 0
-128 168 -169 0
-128 -168 169 0
128 168 -170 0
128 -168 170 0
-128 168 170 0
-128 -168 -170 0
167 169 -171 0
167 -169 171 0
-167 169 171 0
-167 -169 -171 0
8 13 -172 0
8 -13 -172 0
-8 13 -172 0
-8 -13 172 0
135 140 -173 0
135 -140 -173 0
-135 140 -173 0
-135 -140 173 0
135 140 -174 0
135 -140 174 0
-135 140 174 0
-135 -140 -174 0
141 146 -175 0
141 -146 -175 0
-141 146 -175 0
-141 -146 175 0
141 146 -176 0
141 -146 176 0
-141 146 176 0
-141 -146 -176 0
173 176 -177 0
173 -176 -177 0
-173 176 -177 0
-173 -176 177 0
173 176 -178 0
173 -176 178 0
-173 176 178 0
-173 -176 -178 0
175 177 -179 0
175 -177 179 0
-175 177 179 0
-175 -177 -179 0
147 152 -180 0
147 -152 -180 0
-147 152 -180 0
-147 -152 180 0
147 152 -181 0
147 -152 181 0
-147 152 181 0
-147 -152 -181 0
179 181 -182 0
179 -181 -182 0
-179 181 -182 0
-179 -181 182 0
179 181 -183 0
179 -181 183 0
-179 181 183 0
-179 -181 -183 0
180 182 -184 0
180 -182 184 0
-180 182 184 0
-180 -182 -184 0
153 158 -185 0
153 -158 -185 0
-153 158 -185 0
-153 -158 185 0
153 158 -186 0
153 -158 186 0
-153 158 186 0
-153 -158 -186 0
184 186 -187 0
184 -186 -187 0
-184 186 -187 0
-184 -186 187 0
184 186 -188 0
184 -186 188 0
-184 186 188 0
-184 -186 -188 0
185 187 -189 0
185 -187 189 0
-185 187 189 0
-185 -187 -189 0
159 164 -190 0
159 -164 -190 0
-159 164 -190 0
-159 -164 190 0
159 164 -191 0
159 -164 191 0
-159 164 191 0
-159 -164 -191 0
189 191 -192 0
189 -191 -192 0
-189 191 -192 0
-189 -191 192 0
189 191 -193 0
189 -191 193 0
-189 191 193 0
-189 -191 -193 0
190 192 -194 0
190 -192 194 0
-190 192 194 0
-190 -192 -194 0
165 170 -195 0
165 -170 -195 0
-165 170 -195 0
-165 -170 195 0
165 170 -196 0
165 -170 196 0
-165 170 196 0
-165 -170 -196 0
194 196 -197 0
194 -196 -197 0
-194 196 -197 0
-194 -196 197 0
194 196 -198 0
194 -196 198 0
-194 196 198 0
-194 -196 -198 0
195 197 -199 0
195 -197 199 0
-195 197 199 0
-195 -197 -199 0
171 172 -200 0
171 -172 -200 0
-171 172 -200 0
-171 -172 200 0
171 172 -201 0
171 -172 201 0
-171 172 201 0
-171 -172 -201 0
199 201 -202 0
199 -201 -202 0
-199 201 -202 0
-199 -201 202 0
199 201 -203 0
199 -201 203 0
-199 201 203 0
-199 -201 -203 0
200 202 -204 0
200 -202 204 0
-200 202 204 0
-200 -202 -204 0
14 0
24 0
48 0
91 0
-134 0
-174 0
-178 0
-183 0
188 0
-193 0
-198 0
-203 0
-204 0